p cep 250 2451
1 2
1 3
1 4
1 5
1 6
1 8
1 9
1 12
1 15
1 16
1 17
1 18
1 20
1 21
1 23
1 24
2 3
2 4
2 5
2 6
2 8
2 9
2 11
2 12
2 13
2 14
2 15
2 16
2 17
2 18
2 19
2 20
2 21
2 22
2 23
2 24
3 4
3 5
3 8
3 9
3 11
3 12
3 13
3 14
3 15
3 16
3 17
3 18
3 19
3 20
3 21
3 23
3 24
4 5
4 6
4 8
4 9
4 11
4 12
4 13
4 14
4 15
4 16
4 17
4 18
4 19
4 20
4 21
4 22
4 23
4 24
5 6
5 8
5 9
5 12
5 13
5 14
5 15
5 16
5 17
5 18
5 20
5 21
5 22
5 23
5 24
6 8
6 9
6 12
6 17
6 20
6 21
6 23
6 24
8 9
8 12
8 16
8 17
8 18
8 20
8 21
8 23
8 24
9 12
9 15
9 17
9 18
9 20
9 21
9 23
9 24
10 11
10 25
11 12
11 13
11 14
11 16
11 19
11 21
12 13
12 14
12 15
12 16
12 17
12 18
12 19
12 20
12 21
12 22
12 23
12 24
13 14
13 16
13 18
13 19
13 21
13 22
13 24
14 16
14 18
14 19
14 21
14 22
14 24
15 16
15 17
15 18
15 19
15 20
15 21
15 24
16 17
16 18
16 19
16 20
16 21
16 22
16 23
16 24
17 18
17 19
17 20
17 21
17 23
17 24
18 19
18 20
18 21
18 23
18 24
19 21
20 21
20 23
20 24
21 22
21 23
21 24
21 180
23 24
26 27
26 28
26 29
26 30
26 31
26 32
26 33
26 34
26 35
26 36
26 37
26 38
26 39
26 40
26 41
26 42
26 43
26 44
26 45
26 46
26 47
26 48
26 49
26 50
27 29
27 30
27 31
27 32
27 38
27 39
27 40
27 42
27 43
27 47
27 49
27 50
28 29
28 30
28 32
28 33
28 34
28 35
28 37
28 38
28 39
28 41
28 43
28 44
28 46
28 47
28 48
28 49
28 50
29 30
29 31
29 32
29 33
29 34
29 35
29 36
29 37
29 38
29 39
29 41
29 42
29 43
29 44
29 45
29 46
29 47
29 48
29 49
29 50
30 31
30 32
30 33
30 34
30 35
30 36
30 37
30 38
30 39
30 40
30 42
30 43
30 44
30 45
30 46
30 47
30 48
30 49
30 50
31 32
31 33
31 36
31 37
31 38
31 40
31 42
31 43
31 44
31 45
31 47
31 48
31 49
31 50
32 33
32 34
32 35
32 36
32 37
32 38
32 40
32 42
32 43
32 44
32 45
32 46
32 47
32 48
32 49
32 50
33 34
33 35
33 37
33 38
33 39
33 41
33 42
33 43
33 44
33 45
33 46
33 47
33 48
33 49
33 50
34 35
34 37
34 38
34 39
34 43
34 44
34 45
34 46
34 47
34 49
34 50
35 36
35 37
35 38
35 39
35 41
35 43
35 44
35 46
35 47
35 48
35 49
35 50
36 37
36 38
36 39
36 40
36 43
36 44
36 45
36 46
36 47
36 48
36 49
36 50
37 38
37 39
37 40
37 42
37 43
37 44
37 45
37 46
37 47
37 48
37 49
37 50
38 39
38 40
38 41
38 42
38 43
38 44
38 45
38 46
38 47
38 48
38 49
38 50
38 105
38 112
38 123
38 130
39 41
39 43
39 44
39 46
39 47
39 49
39 50
40 42
40 43
40 44
40 45
40 47
40 48
40 49
41 43
41 44
41 45
41 46
41 47
41 49
41 50
42 43
42 44
42 45
42 47
42 48
42 49
42 50
43 44
43 45
43 46
43 47
43 48
43 49
43 50
43 122
43 130
44 45
44 46
44 47
44 48
44 49
44 50
45 47
45 48
45 49
45 50
46 47
46 48
46 49
46 50
47 48
47 49
47 50
47 51
47 54
47 75
47 105
47 130
48 49
48 50
48 150
49 50
49 101
49 105
49 123
51 53
51 54
51 55
51 57
51 58
51 59
51 60
51 61
51 62
51 63
51 64
51 65
51 66
51 67
51 68
51 69
51 71
51 72
51 73
51 74
51 75
51 101
51 105
51 130
52 53
52 56
52 58
52 59
52 60
52 61
52 62
52 63
52 64
52 65
52 70
52 71
52 73
52 74
53 54
53 55
53 56
53 57
53 58
53 59
53 60
53 61
53 62
53 63
53 64
53 65
53 66
53 67
53 68
53 69
53 71
53 72
53 73
53 74
53 75
53 128
53 130
53 133
53 140
53 143
53 150
54 55
54 57
54 60
54 61
54 62
54 63
54 65
54 66
54 67
54 68
54 69
54 71
54 72
54 73
54 74
54 75
54 105
54 130
54 131
55 57
55 59
55 60
55 61
55 62
55 63
55 66
55 67
55 68
55 69
55 71
55 72
55 73
55 74
55 75
55 105
55 130
56 58
56 59
56 61
56 62
56 63
56 64
56 65
56 66
56 68
56 70
56 71
56 73
56 74
56 142
57 59
57 60
57 61
57 62
57 63
57 64
57 65
57 66
57 67
57 68
57 69
57 71
57 72
57 73
57 74
57 75
58 59
58 61
58 62
58 64
58 65
58 68
58 69
58 70
58 71
58 73
58 74
58 136
59 60
59 61
59 62
59 63
59 64
59 65
59 68
59 69
59 71
59 73
59 74
59 75
59 126
59 137
60 61
60 62
60 63
60 64
60 65
60 66
60 67
60 68
60 69
60 71
60 72
60 73
60 74
60 75
60 101
60 105
60 106
60 120
60 130
60 131
60 149
60 150
60 228
61 62
61 63
61 64
61 65
61 66
61 67
61 68
61 69
61 70
61 71
61 72
61 73
61 74
61 75
61 128
61 136
61 137
61 142
61 150
62 63
62 64
62 65
62 66
62 67
62 68
62 69
62 70
62 71
62 72
62 73
62 74
62 75
62 128
62 130
62 136
62 140
62 143
62 149
62 227
62 236
63 64
63 65
63 66
63 67
63 68
63 69
63 70
63 71
63 72
63 73
63 74
63 75
63 133
63 150
64 65
64 67
64 68
64 69
64 71
64 73
64 74
64 75
65 66
65 68
65 69
65 70
65 71
65 73
65 74
65 75
65 128
65 133
65 138
65 142
65 148
66 67
66 68
66 69
66 71
66 72
66 73
66 74
66 75
66 110
66 115
67 68
67 69
67 71
67 72
67 73
67 74
67 75
67 143
68 69
68 70
68 71
68 72
68 73
68 74
68 75
68 128
68 129
68 136
68 143
68 149
69 70
69 71
69 72
69 73
69 74
69 75
69 130
69 134
69 142
69 149
69 150
70 128
70 133
70 135
70 136
70 142
70 148
70 150
71 72
71 73
71 74
71 75
71 133
72 73
72 74
72 75
72 105
72 123
72 130
73 74
73 75
73 143
73 149
74 75
74 128
74 140
74 143
74 149
75 105
75 122
75 130
75 150
76 78
76 79
76 81
76 82
76 83
76 84
76 85
76 88
76 89
76 90
76 91
76 92
76 93
76 94
76 97
76 98
76 100
77 78
77 79
77 80
77 81
77 82
77 83
77 85
77 86
77 87
77 88
77 89
77 90
77 91
77 92
77 93
77 94
77 95
77 96
77 97
77 98
77 99
77 100
78 79
78 80
78 81
78 82
78 83
78 84
78 85
78 86
78 87
78 88
78 89
78 90
78 91
78 92
78 93
78 94
78 95
78 96
78 97
78 98
78 99
78 100
79 80
79 81
79 82
79 83
79 84
79 85
79 86
79 87
79 88
79 89
79 90
79 91
79 92
79 93
79 94
79 95
79 96
79 97
79 98
79 99
79 100
80 81
80 82
80 83
80 85
80 86
80 87
80 88
80 89
80 90
80 91
80 92
80 93
80 94
80 95
80 96
80 97
80 98
80 99
80 100
81 82
81 83
81 84
81 85
81 86
81 87
81 88
81 89
81 90
81 91
81 92
81 93
81 94
81 95
81 96
81 97
81 98
81 99
81 100
82 83
82 84
82 85
82 86
82 87
82 88
82 89
82 90
82 91
82 92
82 93
82 94
82 95
82 96
82 97
82 98
82 99
82 100
83 84
83 85
83 86
83 87
83 88
83 89
83 90
83 91
83 92
83 93
83 94
83 95
83 96
83 97
83 98
83 99
83 100
84 85
84 88
84 89
84 90
84 91
84 92
84 93
84 94
84 97
84 98
84 100
85 86
85 87
85 88
85 89
85 90
85 91
85 92
85 93
85 94
85 96
85 97
85 98
85 99
85 100
86 87
86 88
86 89
86 91
86 92
86 93
86 94
86 95
86 96
86 97
87 88
87 89
87 91
87 92
87 93
87 94
87 95
87 96
87 97
88 89
88 90
88 91
88 92
88 93
88 94
88 95
88 96
88 97
88 98
88 99
88 100
89 90
89 91
89 92
89 93
89 94
89 95
89 96
89 97
89 98
89 99
89 100
90 91
90 92
90 93
90 94
90 95
90 96
90 97
90 98
90 99
90 100
91 92
91 93
91 94
91 95
91 96
91 97
91 98
91 99
91 100
92 93
92 94
92 95
92 96
92 97
92 98
92 99
92 100
93 94
93 95
93 96
93 97
93 98
93 99
93 100
94 95
94 96
94 97
94 98
94 99
94 100
95 96
95 97
96 97
96 99
97 98
97 99
97 100
98 99
98 100
99 100
101 102
101 103
101 104
101 105
101 106
101 109
101 110
101 111
101 112
101 113
101 114
101 115
101 116
101 117
101 118
101 119
101 120
101 121
101 122
101 123
101 124
101 125
101 130
101 149
102 105
102 106
102 107
102 109
102 110
102 111
102 112
102 113
102 114
102 115
102 116
102 117
102 118
102 119
102 120
102 121
102 122
102 123
102 124
102 125
103 104
103 105
103 106
103 109
103 110
103 111
103 112
103 115
103 117
103 118
103 119
103 122
103 123
103 125
104 105
104 106
104 109
104 110
104 111
104 112
104 113
104 115
104 116
104 117
104 118
104 119
104 120
104 122
104 123
104 125
105 106
105 109
105 110
105 111
105 112
105 113
105 114
105 115
105 116
105 117
105 118
105 119
105 120
105 121
105 122
105 123
105 124
105 125
105 130
106 108
106 109
106 110
106 111
106 112
106 113
106 114
106 115
106 116
106 117
106 118
106 119
106 120
106 121
106 122
106 123
106 124
106 125
106 130
107 109
107 114
107 117
107 124
108 109
108 113
108 114
108 117
108 120
108 124
108 125
109 110
109 111
109 112
109 113
109 114
109 115
109 116
109 117
109 118
109 119
109 120
109 121
109 122
109 123
109 124
109 125
109 130
109 134
109 137
109 149
109 150
110 111
110 112
110 115
110 116
110 117
110 118
110 119
110 120
110 122
110 123
110 124
110 125
111 112
111 113
111 115
111 116
111 117
111 118
111 119
111 120
111 121
111 122
111 123
111 124
111 125
112 113
112 115
112 117
112 118
112 119
112 120
112 121
112 122
112 123
112 124
112 125
113 114
113 115
113 116
113 117
113 118
113 119
113 120
113 121
113 122
113 123
113 124
113 125
114 115
114 116
114 117
114 118
114 119
114 120
114 121
114 122
114 123
114 124
114 126
114 140
114 149
115 116
115 117
115 118
115 119
115 120
115 122
115 123
115 124
115 125
115 130
116 117
116 118
116 120
116 121
116 122
116 123
116 124
116 130
116 134
117 118
117 119
117 120
117 121
117 122
117 123
117 124
117 125
118 119
118 120
118 121
118 122
118 123
118 124
118 125
118 130
119 120
119 121
119 122
119 123
119 125
120 121
120 122
120 123
120 124
120 125
121 122
121 123
121 124
121 125
122 123
122 125
122 130
123 124
123 125
123 130
123 149
124 125
124 126
124 136
124 147
125 131
126 127
126 128
126 129
126 130
126 131
126 133
126 134
126 135
126 136
126 137
126 138
126 139
126 140
126 141
126 142
126 143
126 145
126 146
126 147
126 148
126 149
126 150
127 128
127 129
127 130
127 131
127 133
127 134
127 136
127 139
127 140
127 141
127 142
127 143
127 148
127 149
127 150
128 129
128 130
128 132
128 133
128 134
128 135
128 136
128 137
128 138
128 139
128 140
128 141
128 142
128 143
128 145
128 146
128 147
128 148
128 149
128 150
129 130
129 133
129 134
129 135
129 136
129 137
129 138
129 139
129 140
129 141
129 142
129 143
129 145
129 147
129 148
129 149
129 150
130 131
130 133
130 134
130 135
130 136
130 138
130 140
130 141
130 142
130 143
130 148
130 149
130 150
131 134
131 137
131 141
131 143
131 148
131 149
131 150
132 135
132 136
132 138
132 139
132 140
132 142
132 143
132 145
132 146
132 147
132 148
132 149
133 134
133 135
133 136
133 137
133 138
133 139
133 140
133 141
133 142
133 143
133 145
133 146
133 147
133 148
133 149
133 150
134 135
134 136
134 137
134 138
134 139
134 140
134 141
134 142
134 143
134 145
134 148
134 149
134 150
135 136
135 137
135 138
135 139
135 140
135 142
135 143
135 145
135 146
135 147
135 148
135 149
135 150
136 137
136 139
136 140
136 142
136 143
136 145
136 146
136 147
136 148
136 149
136 150
137 138
137 139
137 140
137 141
137 142
137 143
137 145
137 147
137 148
137 149
137 150
138 139
138 140
138 141
138 142
138 143
138 145
138 146
138 147
138 148
138 149
138 150
139 140
139 141
139 142
139 143
139 145
139 146
139 147
139 148
139 149
139 150
140 141
140 143
140 145
140 147
140 148
140 149
140 150
141 142
141 143
141 145
141 148
141 149
141 150
142 143
142 145
142 146
142 147
142 148
142 149
142 150
143 145
143 147
143 148
143 149
143 150
143 233
145 146
145 147
145 148
145 149
146 147
146 148
146 149
147 148
147 149
147 150
148 149
148 150
149 150
151 152
151 153
151 154
151 155
151 156
151 157
151 158
151 159
151 161
151 162
151 164
151 165
151 166
151 167
151 168
151 169
151 170
151 172
151 173
151 175
152 153
152 154
152 155
152 156
152 157
152 158
152 159
152 161
152 162
152 163
152 165
152 166
152 168
152 169
152 170
152 172
152 173
152 175
153 154
153 155
153 156
153 157
153 158
153 159
153 161
153 162
153 163
153 164
153 165
153 166
153 167
153 168
153 169
153 170
153 171
153 172
153 173
153 174
153 175
154 155
154 156
154 157
154 158
154 159
154 161
154 162
154 164
154 165
154 166
154 167
154 168
154 169
154 170
154 173
154 174
154 175
155 156
155 157
155 158
155 159
155 161
155 162
155 163
155 164
155 165
155 166
155 167
155 168
155 169
155 170
155 171
155 172
155 173
155 174
155 175
156 157
156 158
156 159
156 161
156 162
156 163
156 164
156 165
156 166
156 167
156 168
156 169
156 170
156 171
156 172
156 173
156 174
156 175
157 158
157 159
157 161
157 162
157 165
157 166
157 167
157 168
157 169
157 170
157 175
158 159
158 161
158 162
158 163
158 164
158 165
158 166
158 167
158 168
158 169
158 170
158 171
158 172
158 173
158 174
158 175
159 161
159 162
159 165
159 166
159 167
159 168
159 169
159 170
159 175
160 164
160 171
161 162
161 163
161 164
161 165
161 166
161 167
161 168
161 169
161 170
161 172
161 173
161 174
161 175
162 164
162 165
162 166
162 167
162 168
162 169
162 170
162 171
162 172
162 173
162 174
162 175
163 164
163 165
163 166
163 168
163 169
163 170
163 171
163 172
163 173
163 174
163 175
164 165
164 166
164 168
164 169
164 170
164 171
164 172
164 173
164 174
164 175
165 166
165 167
165 168
165 169
165 170
165 171
165 172
165 173
165 175
166 167
166 168
166 169
166 170
166 171
166 172
166 173
166 174
166 175
167 168
167 169
167 170
167 175
168 169
168 170
168 171
168 172
168 173
168 174
168 175
169 170
169 171
169 172
169 173
169 174
169 175
170 171
170 172
170 173
170 174
170 175
171 172
171 173
171 174
172 173
172 174
172 175
173 174
173 175
174 175
176 179
176 180
176 181
176 182
176 184
176 185
176 186
176 187
176 188
176 189
176 190
176 191
176 193
176 194
176 195
176 196
176 198
176 199
176 200
176 243
176 249
177 192
177 197
178 180
178 181
178 184
178 186
178 187
178 188
178 191
178 194
178 195
178 196
178 200
179 182
179 185
179 186
179 187
179 190
179 191
179 193
179 195
179 198
179 199
180 181
180 182
180 183
180 184
180 185
180 186
180 187
180 188
180 191
180 193
180 194
180 195
180 196
180 198
180 199
180 200
180 202
181 182
181 183
181 184
181 185
181 186
181 187
181 188
181 190
181 191
181 193
181 194
181 195
181 196
181 198
181 199
181 200
182 185
182 186
182 187
182 188
182 189
182 190
182 191
182 192
182 193
182 194
182 195
182 197
182 198
182 199
182 200
183 184
183 188
183 194
183 196
183 199
184 185
184 186
184 187
184 188
184 191
184 193
184 194
184 195
184 196
184 198
184 199
184 200
185 186
185 187
185 188
185 189
185 190
185 191
185 192
185 193
185 194
185 195
185 196
185 197
185 198
185 199
185 200
185 243
186 187
186 188
186 191
186 194
186 195
186 196
186 198
186 199
186 200
187 188
187 191
187 193
187 194
187 195
187 196
187 198
187 199
187 200
188 191
188 194
188 195
188 196
188 198
188 199
188 200
188 249
189 191
189 192
189 193
189 198
189 200
190 191
190 194
190 195
191 193
191 194
191 195
191 196
191 198
191 199
191 200
191 243
191 249
192 197
193 195
193 198
193 200
194 195
194 196
194 198
194 199
195 196
195 198
195 199
195 200
196 199
196 200
196 205
196 207
196 212
198 199
198 200
198 249
199 200
201 202
201 203
201 204
201 205
201 206
201 207
201 208
201 209
201 210
201 211
201 212
201 213
201 214
201 215
201 216
201 217
201 218
201 219
201 220
201 221
201 222
201 223
201 224
201 225
202 203
202 204
202 205
202 206
202 207
202 208
202 209
202 210
202 211
202 212
202 213
202 214
202 215
202 216
202 217
202 218
202 219
202 220
202 221
202 222
202 223
202 224
202 225
203 205
203 206
203 207
203 208
203 209
203 211
203 212
203 213
203 214
203 215
203 216
203 217
203 218
203 220
203 221
203 222
203 223
203 225
204 205
204 207
204 208
204 209
204 210
204 212
204 213
204 214
204 217
204 218
204 219
204 220
204 221
204 222
204 223
204 225
205 206
205 207
205 208
205 209
205 210
205 211
205 212
205 213
205 214
205 215
205 216
205 217
205 218
205 219
205 220
205 221
205 222
205 223
205 224
205 225
206 207
206 208
206 209
206 211
206 212
206 213
206 214
206 215
206 216
206 217
206 218
206 219
206 220
206 221
206 222
206 223
206 225
207 208
207 209
207 210
207 211
207 212
207 213
207 214
207 215
207 216
207 217
207 218
207 219
207 220
207 221
207 222
207 223
207 224
207 225
208 209
208 210
208 211
208 212
208 213
208 214
208 215
208 216
208 217
208 218
208 219
208 220
208 221
208 222
208 223
208 224
208 225
209 212
209 213
209 214
209 215
209 216
209 217
209 218
209 219
209 220
209 221
209 222
209 223
209 225
210 211
210 212
210 213
210 214
210 216
210 217
210 218
210 219
210 220
210 222
210 223
210 224
210 225
211 212
211 213
211 214
211 215
211 216
211 217
211 218
211 220
211 221
211 222
211 224
211 225
212 213
212 214
212 215
212 216
212 217
212 218
212 219
212 220
212 221
212 222
212 223
212 224
212 225
213 214
213 215
213 216
213 217
213 218
213 219
213 220
213 221
213 222
213 223
213 224
213 225
214 215
214 216
214 217
214 218
214 219
214 220
214 221
214 222
214 223
214 224
214 225
215 216
215 217
215 218
215 219
215 220
215 221
215 222
215 223
215 225
216 217
216 218
216 220
216 221
216 222
216 223
216 224
216 225
217 218
217 219
217 220
217 221
217 222
217 223
217 224
217 225
218 219
218 220
218 221
218 222
218 223
218 224
218 225
219 220
219 221
219 222
219 223
219 224
219 225
220 221
220 222
220 223
220 224
220 225
221 222
221 223
221 224
221 225
222 223
222 224
222 225
223 225
224 225
226 227
226 228
226 229
226 230
226 232
226 233
226 234
226 236
226 238
226 239
226 240
226 241
226 242
226 243
226 245
226 247
226 248
226 249
227 228
227 229
227 230
227 232
227 233
227 234
227 235
227 236
227 237
227 239
227 240
227 241
227 242
227 243
227 244
227 245
227 247
227 248
227 249
228 229
228 230
228 231
228 232
228 233
228 234
228 235
228 236
228 237
228 238
228 239
228 240
228 242
228 243
228 244
228 245
228 247
228 248
228 249
228 250
229 230
229 231
229 232
229 233
229 234
229 235
229 236
229 237
229 238
229 239
229 240
229 242
229 243
229 244
229 245
229 247
229 248
229 249
229 250
230 231
230 232
230 233
230 234
230 237
230 238
230 239
230 240
230 242
230 244
230 245
230 246
230 247
230 248
230 249
231 232
231 234
231 237
231 240
231 243
231 247
231 248
231 249
231 250
232 233
232 234
232 235
232 236
232 237
232 238
232 239
232 240
232 241
232 242
232 243
232 244
232 245
232 246
232 247
232 248
232 249
232 250
233 234
233 236
233 241
233 242
233 244
233 248
234 235
234 236
234 237
234 238
234 239
234 240
234 241
234 242
234 243
234 245
234 247
234 248
234 249
234 250
235 236
235 238
235 239
235 245
235 248
236 239
236 241
236 242
236 245
237 238
237 240
237 242
237 243
237 247
237 248
237 249
237 250
238 240
238 242
238 243
238 244
238 245
238 246
238 247
238 248
238 249
239 240
239 241
239 242
239 245
239 247
239 248
239 249
240 242
240 243
240 245
240 247
240 248
240 249
240 250
242 243
242 244
242 245
242 247
242 248
242 249
243 247
243 248
243 249
243 250
244 248
245 246
245 247
246 247
247 248
247 249
247 250
248 249
249 250
